c WARNING: for repeatability, setting FPU to use double precision
d VARIABLES            191848       
d CONSTRAINTS          881649       
c ============================[ Problem Statistics ]=============================
c |                                                                             |
c |  Number of variables:        191848                                         |
c |  Number of clauses:          881649                                         |
c |  Parse time:                   0.13 s                                       |
c |                                                                             |
c ============================[ Search Statistics ]==============================
c | Conflicts |          ORIGINAL         |          LEARNT          | Progress |
c |           |    Vars  Clauses Literals |    Limit  Clauses Lit/Cl |          |
c ===============================================================================
c |       100 |  170683   821749  1985614 |   301307      100     25 | 11.032 % |
c |       250 |  170683   821749  1985614 |   331438      250     28 | 11.032 % |
c |       475 |  170683   821749  1985614 |   364582      475     45 | 11.032 % |
c |       812 |  170683   821749  1985614 |   401040      812     61 | 11.032 % |
c |      1318 |  170683   821749  1985614 |   441144     1318    109 | 11.032 % |
c |      2077 |  170683   821749  1985614 |   485259     2077     96 | 11.032 % |
c |      3216 |  170683   821749  1985614 |   533785     3216    120 | 11.032 % |
c |      4924 |  170683   821749  1985614 |   587163     4924     99 | 11.032 % |
c |      7486 |  170683   821749  1985614 |   645880     7486    111 | 11.032 % |
c |     11330 |  170683   821749  1985614 |   710468    11330    104 | 11.032 % |
c |     17096 |  170683   821749  1985614 |   781515    17096    100 | 11.032 % |
c |     25745 |  170683   821749  1985614 |   859666    25745    103 | 11.032 % |
c |     38719 |  170683   821749  1985614 |   945633    38719    119 | 11.032 % |
c |     58180 |  170683   821749  1985614 |  1040196    58180    128 | 11.032 % |
c |     87372 |  170683   821749  1985614 |  1144216    87372    143 | 11.032 % |
c |    131161 |  170683   821749  1985614 |  1258638   131161    151 | 11.032 % |
c |    196845 |  170683   821749  1985614 |  1384501   196845    155 | 11.032 % |
c |    295371 |  170683   821749  1985614 |  1522952   295371    171 | 11.032 % |
c |    443160 |  170683   821749  1985614 |  1675247   443160    153 | 11.032 % |
c ===============================================================================
c restarts              : 1427
c conflicts             : 664671         (1383 /sec)
c decisions             : 2365237        (0.00 % random) (4922 /sec)
c propagations          : 1594507321     (3318337 /sec)
c conflict literals     : 117705741      (25.14 % deleted)
d RESTARTS             1427
d FAILURES             664671       
d NODES                2365237      
d BACKTRACKS           2365237      
d PROPAGATIONS         1594507321   
d NOGOODSIZE           177.09 
d MEMORY               651.00 
d TIME                 480.514 

s SATISFIABLE
